LatticeConstant 1.0 Ang
%block LatticeVectors
 15.67977900 0.00000000 0.00000000
 0.00000000 19.32578800 0.00000000
 0.00000000 0.00000000 12.42958600
%endblock LatticeVectors

NumberOfAtoms 27
AtomicCoordinatesFormat Ang
%block AtomicCoordinatesAndAtomicSpecies
  1.23000000  0.71000000  0.00000000 1 #  1: C
  2.16200000  1.24900000  0.00000000 2 #  2: H
  0.00000000  1.42000000  0.00000000 1 #  3: C
  0.00000000  2.82000000  0.00000000 3 #  4: O
 -1.23000000  0.71000000  0.00000000 1 #  5: C
 -2.16200000  1.24900000  0.00000000 2 #  6: H
 -1.23000000 -0.71000000  0.00000000 1 #  7: C
 -2.09565900 -1.21063300  0.00000000 1 #  8: C
  0.00000000 -1.42000000  0.00000000 1 #  9: C
  0.00000000 -2.92000000  0.00000000 1 # 10: C
  1.23000000 -0.71000000  0.00000000 1 # 11: C
  2.52848900 -1.46095000  0.00000000 1 # 12: C
  2.79894900 -1.73634900  1.04200000 2 # 13: H
  2.44734700 -2.39824500 -0.59200000 2 # 14: H
  3.35564200 -0.84766100 -0.41900000 2 # 15: H
 -0.33742500 -3.26101500  0.87741400 2 # 16: H
 -0.57619900 -3.26100300 -0.74277400 2 # 17: H
  1.40312300 -3.40835000 -0.20678800 1 # 18: C
  1.78751300 -3.03443700 -1.18002500 2 # 19: H
  2.07757900 -3.03519500  0.59410800 2 # 20: H
  1.46853500 -4.90678200 -0.22733700 1 # 21: C
  1.09707400 -5.30865200  0.73975800 2 # 22: H
  0.83225200 -5.32285500 -1.03826000 2 # 23: H
  2.87316200 -5.39521300 -0.42344700 1 # 24: C
  3.51777900 -5.01334700  0.39716300 2 # 25: H
  2.91578500 -6.50578800 -0.40402400 2 # 26: H
  3.29846800 -5.04106500 -1.38758600 2 # 27: H
%endblock AtomicCoordinatesAndAtomicSpecies

NumberOfSpecies 3
%block ChemicalSpeciesLabel
 1 6 C
 2 1 H
 3 8 O
%endblock ChemicalSpeciesLabel
